Optimal - objective value 1037.00000000
      1 x_1                    1                      -7
      8 x_8                    1                       0
     11 x_11                   1                      25
     13 x_13                   1                      -2
     19 x_19                   1                      11
     24 x_24                   1                      11
     27 x_27                   1                      19
     34 x_34                   1                      -8
     36 x_36                   1                      16
     44 x_44                   1                     -19
     45 x_45                   1                     -12
     49 x_49                   1                       0
     52 x_52                   1                       0
     54 x_54                   1                      29
     59 x_59                   1                     -18
     62 x_62                   1                      15
     66 x_66                   1                      29
     72 x_72                   1                       4
     75 x_75                   1                      23
     81 x_81                   1                       0
     83 x_83                   1                       0
     88 x_88                   1                       9
     90 x_90                   1                      20
     99 x_99                   1                      20
    102 x_102                  1                     -20
    108 x_108                  1                      14
    112 x_112                  1                       0
    115 x_115                  1                      -3
    120 x_120                  1                     -17
    123 x_123                  1                      17
    130 x_130                  1                      11
    134 x_134                  1                       0
    141 x_141                  1                     -11
    146 x_146                  1                      -5
    151 x_151                  1                       0
    153 x_153                  1                      14
    158 x_158                  1                      22
    164 x_164                  1                       0
    167 x_167                  1                      26
    171 x_171                  1                       0
    175 x_175                  1                      15
    177 x_177                  1                     -13
    184 x_184                  1                       2
    187 x_187                  1                      20
    192 x_192                  1                      10
    195 x_195                  1                      18
    204 x_204                  1                      -7
    208 x_208                  1                      14
    214 x_214                  1                      -7
    218 x_218                  1                      -1
    222 x_222                  1                      -5
    227 x_227                  1                      14
    230 x_230                  1                      -9
    236 x_236                  1                       0
    242 x_242                  1                       0
    247 x_247                  1                       9
    250 x_250                  1                     -19
    258 x_258                  1                      32
    260 x_260                  1                       6
    265 x_265                  1                      15
Optimal - objective value 1037.00000000
      1 x_1                    1                      -7
      8 x_8                    1                       0
     11 x_11                   1                      25
     13 x_13                   1                      -2
     19 x_19                   1                      11
     24 x_24                   1                      11
     27 x_27                   1                      19
     34 x_34                   1                      -8
     36 x_36                   1                      16
     44 x_44                   1                     -19
     45 x_45                   1                     -12
     49 x_49                   1                       0
     52 x_52                   1                       0
     54 x_54                   1                      29
     59 x_59                   1                     -18
     62 x_62                   1                      15
     66 x_66                   1                      29
     72 x_72                   1                       4
     75 x_75                   1                      23
     81 x_81                   1                       0
     83 x_83                   1                       0
     88 x_88                   1                       9
     90 x_90                   1                      20
     99 x_99                   1                      20
    102 x_102                  1                     -20
    108 x_108                  1                      14
    112 x_112                  1                       0
    115 x_115                  1                      -3
    120 x_120                  1                     -17
    123 x_123                  1                      17
    130 x_130                  1                      11
    134 x_134                  1                       0
    141 x_141                  1                     -11
    146 x_146                  1                      -5
    151 x_151                  1                       0
    153 x_153                  1                      14
    158 x_158                  1                      22
    164 x_164                  1                       0
    167 x_167                  1                      26
    171 x_171                  1                       0
    175 x_175                  1                      15
    177 x_177                  1                     -13
    184 x_184                  1                       2
    187 x_187                  1                      20
    192 x_192                  1                      10
    195 x_195                  1                      18
    204 x_204                  1                      -7
    208 x_208                  1                      14
    214 x_214                  1                      -7
    218 x_218                  1                      -1
    222 x_222                  1                      -5
    227 x_227                  1                      14
    230 x_230                  1                      -9
    236 x_236                  1                       0
    242 x_242                  1                       0
    247 x_247                  1                       9
    250 x_250                  1                     -19
    258 x_258                  1                      32
    260 x_260                  1                       6
    265 x_265                  1                      15
